Data path: /scratch/opt/lxu/CFLG/benchmarks/random_B
Instance: r_40_0.4_297.txt
Result path: /scratch/opt/lxu/CFLG/results/random_B
Solver: Gurobi
Time limit: 7200
Formulation: LEFPI
Cover: Large
julia --project=. src/main.jl /scratch/opt/lxu/CFLG/benchmarks/random_B r_40_0.4_297.txt /scratch/opt/lxu/CFLG/results/random_B Gurobi 7200 LEFPI Large
The latest version of Julia in the `release` channel is 1.11.5+0.x64.linux.gnu. You currently have `1.11.4+0.x64.linux.gnu` installed. Run:

  juliaup update

in your terminal shell to install Julia 1.11.5+0.x64.linux.gnu and update the `release` channel to that version.
/scratch/opt/lxu/CFLG/benchmarks/random_B Gurobi 7200.0 /scratch/opt/lxu/CFLG/results/random_B r_40_0.4_297.txt LEFPI Large
/scratch/opt/lxu/CFLG/benchmarks/random_B/r_40_0.4_297.txt

 read graph
data loaded

problem_graph/original graph: node: 40/40 edge: 297/297 dlt: 1.2585651957027357 break_avg_len: 0.6292825978513679 break_max_len: 0.9985183215968443Set parameter TokenServer to value "solice01.zib.de"
Set parameter Threads to value 1
Set parameter OutputFlag to value 1
Gurobi Optimizer version 12.0.1 build v12.0.1rc0 (linux64 - "Debian GNU/Linux 12 (bookworm)")

CPU model: Intel(R) Xeon(R) Gold 5122 CPU @ 3.60GHz, instruction set [SSE2|AVX|AVX2|AVX512]
Thread count: 8 physical cores, 16 logical processors, using up to 1 threads

Non-default parameters:
Threads  1

Optimize a model with 337 rows, 891 columns and 1485 nonzeros
Model fingerprint: 0x65a4c0eb
Coefficient statistics:
  Matrix range     [1e+00, 1e+00]
  Objective range  [1e+00, 1e+00]
  Bounds range     [1e+00, 1e+00]
  RHS range        [0e+00, 0e+00]
Presolve removed 337 rows and 891 columns
Presolve time: 0.02s
Presolve: All rows and columns removed
Iteration    Objective       Primal Inf.    Dual Inf.      Time
       0   -0.0000000e+00   0.000000e+00   0.000000e+00      0s

Solved in 0 iterations and 0.02 seconds (0.00 work units)
Optimal objective -0.000000000e+00

User-callback calls 35, time in user-callback 0.01 sec
elapsed CPU time: 1.311845 seconds
Set parameter TokenServer to value "solice01.zib.de"
Set parameter Threads to value 1
Set parameter OutputFlag to value 1
Set parameter MIPGap to value 0.0001
Set parameter MIPGapAbs to value 0.999998
Set parameter TimeLimit to value 7198.688155

 more cuts:falsefalse
0 0
formulation:LEFPI0 297 40

 model loaded

Gurobi Optimizer version 12.0.1 build v12.0.1rc0 (linux64 - "Debian GNU/Linux 12 (bookworm)")

CPU model: Intel(R) Xeon(R) Gold 5122 CPU @ 3.60GHz, instruction set [SSE2|AVX|AVX2|AVX512]
Thread count: 8 physical cores, 16 logical processors, using up to 1 threads

Non-default parameters:
TimeLimit  7198.688155
MIPGapAbs  0.999998
Threads  1

Optimize a model with 28392 rows, 24818 columns and 84719 nonzeros
Model fingerprint: 0x26849f7d
Model has 23590 simple general constraints
  23590 INDICATOR
Variable types: 634 continuous, 24184 integer (24184 binary)
Coefficient statistics:
  Matrix range     [3e-01, 1e+00]
  Objective range  [1e+00, 1e+00]
  Bounds range     [3e-01, 1e+00]
  RHS range        [3e-01, 2e+01]
  GenCon rhs range [2e-05, 1e+00]
  GenCon coe range [1e+00, 1e+00]
Presolve added 11528 rows and 0 columns
Presolve removed 0 rows and 341 columns
Presolve time: 0.98s
Presolved: 39920 rows, 24477 columns, 142846 nonzeros
Variable types: 337 continuous, 24140 integer (24140 binary)
Found heuristic solution: objective 297.0000000
Found heuristic solution: objective 69.0000000
Found heuristic solution: objective 68.0000000

Root relaxation: objective 4.774430e-01, 14358 iterations, 1.61 seconds (2.66 work units)

    Nodes    |    Current Node    |     Objective Bounds      |     Work
 Expl Unexpl |  Obj  Depth IntInf | Incumbent    BestBd   Gap | It/Node Time

     0     0    0.47744    0 1257   68.00000    0.47744  99.3%     -    5s
H    0     0                      32.0000000    0.47744  98.5%     -    5s
H    0     0                      10.0000000    0.47744  95.2%     -    5s
H    0     0                       4.0000000    0.47744  88.1%     -    5s
H    0     0                       3.0000000    0.47744  84.1%     -    5s
H    0     0                       2.0000000    0.47744  76.1%     -    7s
     0     0    0.62038    0  468    2.00000    0.62038  69.0%     -   11s
     0     0    0.70341    0  751    2.00000    0.70341  64.8%     -   12s
     0     0    0.74436    0  853    2.00000    0.74436  62.8%     -   15s
     0     0    0.74436    0  852    2.00000    0.74436  62.8%     -   15s
     0     0    1.00000    0  891    2.00000    1.00000  50.0%     -   17s
     0     0    1.00000    0  794    2.00000    1.00000  50.0%     -   18s
     0     0    1.00000    0  427    2.00000    1.00000  50.0%     -   19s
     0     0    1.00000    0  338    2.00000    1.00000  50.0%     -   20s
     0     0    1.00000    0  227    2.00000    1.00000  50.0%     -   20s
     0     0    1.00000    0   95    2.00000    1.00000  50.0%     -   25s
     0     0    1.00000    0  202    2.00000    1.00000  50.0%     -   28s
     0     0    1.00000    0  167    2.00000    1.00000  50.0%     -   28s
     0     0    1.00000    0  124    2.00000    1.00000  50.0%     -   36s
     0     0    1.00000    0  126    2.00000    1.00000  50.0%     -   38s
     0     0    1.00000    0  204    2.00000    1.00000  50.0%     -   46s
     0     0    1.00000    0  181    2.00000    1.00000  50.0%     -   46s
     0     0    1.00000    0  135    2.00000    1.00000  50.0%     -   48s
     0     0    1.00000    0  222    2.00000    1.00000  50.0%     -   56s
     0     0    1.00000    0  161    2.00000    1.00000  50.0%     -   57s
     0     0    1.00000    0  414    2.00000    1.00000  50.0%     -   61s
     0     0    1.00000    0 1196    2.00000    1.00000  50.0%     -   71s
     0     0    1.00000    0  512    2.00000    1.00000  50.0%     -  114s
     0     0    1.00000    0  514    2.00000    1.00000  50.0%     -  114s
     0     0    1.00000    0  537    2.00000    1.00000  50.0%     -  116s
     0     0    1.00000    0  570    2.00000    1.00000  50.0%     -  133s
     0     0    1.00000    0  578    2.00000    1.00000  50.0%     -  134s
     0     0    1.00000    0  605    2.00000    1.00000  50.0%     -  151s
     0     0    1.00000    0  605    2.00000    1.00000  50.0%     -  154s
     0     0    1.00000    0  766    2.00000    1.00000  50.0%     -  163s
     0     0    1.00000    0  675    2.00000    1.00000  50.0%     -  164s
     0     0    1.00000    0  587    2.00000    1.00000  50.0%     -  164s
     0     0    1.00000    0  597    2.00000    1.00000  50.0%     -  165s
     0     0    1.00000    0  606    2.00000    1.00000  50.0%     -  165s
     0     0    1.00000    0  631    2.00000    1.00000  50.0%     -  169s
     0     0    1.00000    0  674    2.00000    1.00000  50.0%     -  170s
     0     0    1.00000    0  547    2.00000    1.00000  50.0%     -  176s
     0     0    1.00000    0  546    2.00000    1.00000  50.0%     -  176s
     0     0    1.00000    0  591    2.00000    1.00000  50.0%     -  177s
     0     0    1.00000    0  593    2.00000    1.00000  50.0%     -  192s
     0     0    1.00000    0  540    2.00000    1.00000  50.0%     -  194s
     0     0    1.00000    0 1151    2.00000    1.00000  50.0%     -  203s
     0     0    1.00000    0 1075    2.00000    1.00000  50.0%     -  204s
     0     0    1.00000    0  781    2.00000    1.00000  50.0%     -  205s
     0     0    1.00000    0  613    2.00000    1.00000  50.0%     -  205s
     0     0    1.00000    0  329    2.00000    1.00000  50.0%     -  226s
     0     0    1.00000    0  303    2.00000    1.00000  50.0%     -  226s
     0     0    1.00000    0  264    2.00000    1.00000  50.0%     -  226s
     0     0    1.00000    0  269    2.00000    1.00000  50.0%     -  229s
     0     0    1.00000    0  443    2.00000    1.00000  50.0%     -  239s
     0     0    1.00000    0  310    2.00000    1.00000  50.0%     -  239s
     0     0    1.00000    0  311    2.00000    1.00000  50.0%     -  239s
     0     0    1.00000    0  391    2.00000    1.00000  50.0%     -  239s
     0     0    1.00000    0  466    2.00000    1.00000  50.0%     -  240s
     0     0    1.00000    0  310    2.00000    1.00000  50.0%     -  240s
     0     0    1.00000    0  299    2.00000    1.00000  50.0%     -  240s
     0     0    1.00000    0  377    2.00000    1.00000  50.0%     -  241s
     0     0    1.00000    0  356    2.00000    1.00000  50.0%     -  241s
     0     0    1.00000    0  325    2.00000    1.00000  50.0%     -  242s
     0     0    1.00000    0  401    2.00000    1.00000  50.0%     -  242s
     0     0    1.00000    0  374    2.00000    1.00000  50.0%     -  242s
     0     0    1.00000    0  405    2.00000    1.00000  50.0%     -  242s
     0     0    1.00000    0  407    2.00000    1.00000  50.0%     -  242s
     0     0    1.00000    0  416    2.00000    1.00000  50.0%     -  244s

Cutting planes:
  Cover: 1
  MIR: 7
  StrongCG: 1
  GUB cover: 5
  RLT: 1
  Relax-and-lift: 120

Explored 1 nodes (408043 simplex iterations) in 248.67 seconds (247.47 work units)
Thread count was 1 (of 16 available processors)

Solution count 8: 2 3 4 ... 297

Optimal solution found (tolerance 1.00e-04)
Best objective 2.000000000000e+00, best bound 2.000000000000e+00, gap 0.0000%

User-callback calls 26475, time in user-callback 0.03 sec

 sepatime0
2.0Stat(MathOptInterface.OPTIMAL, 2.0, 2.0, 0.0, 0.0, 1.311845, 248.66733598709106, 1, Main.CFLG.LEFPI, "", #undef)
